29
2 10 19 
3 31 51 54 
3 37 38 11 
2 4 25 
2 55 34 
2 45 20 
2 58 49 
3 16 24 12 
3 1 15 21 
3 46 32 39 
1 13 
3 43 33 56 
1 48 
1 52 
1 28 
1 18 
3 9 60 17 
3 36 57 27 
2 59 35 
3 6 8 14 
3 2 44 47 
1 42 
2 40 23 
1 53 
3 5 41 29 
2 26 50 
2 7 22 
1 3 
1 30 
